10 10
0 10 1 20 2 30 3 40 4 50 5 15 6 25 7 35 8 45 9 10
1 15 0 25 3 35 2 45 5 10 4 20 7 30 6 40 9 50 8 15
2 20 3 30 0 40 1 50 6 15 7 25 4 35 5 45 8 10 9 20
3 25 2 35 1 45 0 10 7 20 6 30 5 40 4 50 9 15 8 25
4 30 5 40 6 50 7 15 0 25 1 35 2 45 3 10 8 20 9 30
5 35 4 45 7 10 6 20 1 30 0 40 3 50 2 15 9 25 8 35
6 40 7 50 4 15 5 25 2 35 3 45 0 10 1 20 8 30 9 40
7 45 6 10 5 20 4 30 3 40 2 50 1 15 0 25 9 35 8 45
8 50 9 15 0 25 1 35 4 45 5 10 6 20 7 30 2 40 3 50
9 10 8 20 1 30 0 40 5 50 4 15 7 25 6 35 3 45 2 10